# Solution for model CHU-02
# Objective value = 2.9196976063608044e+01
x[0,1,1] 0
x[0,1,2] 0
x[0,2,1] 0
x[0,2,2] 0
x[0,3,1] 0
x[0,3,2] 0
x[0,4,1] 0
x[0,4,2] 0
x[0,5,1] 0
x[0,5,2] 0
x[0,6,1] 1
x[0,6,2] 0
x[0,7,1] 0
x[0,7,2] 0
x[0,8,1] 0
x[0,8,2] 0
x[0,9,1] 0
x[0,9,2] 1
x[0,10,1] 0
x[0,10,2] 0
x[1,0,1] 0
x[1,0,2] 0
x[1,2,1] 0
x[1,2,2] 0
x[1,3,1] 0
x[1,3,2] 0
x[1,4,1] 0
x[1,4,2] 0
x[1,5,1] 0
x[1,5,2] 0
x[1,6,1] 0
x[1,6,2] 0
x[1,7,1] 0
x[1,7,2] 0
x[1,8,1] 1
x[1,8,2] 0
x[1,9,1] 0
x[1,9,2] 0
x[1,10,1] 0
x[1,10,2] 0
x[2,0,1] 0
x[2,0,2] 0
x[2,1,1] 0
x[2,1,2] 0
x[2,3,1] 0
x[2,3,2] 0
x[2,4,1] 0
x[2,4,2] 0
x[2,5,1] 0
x[2,5,2] 0
x[2,6,1] 0
x[2,6,2] 0
x[2,7,1] 0
x[2,7,2] 0
x[2,8,1] 0
x[2,8,2] 0
x[2,9,1] 0
x[2,9,2] 0
x[2,10,1] 1
x[2,10,2] 0
x[3,0,1] 0
x[3,0,2] 1
x[3,1,1] 0
x[3,1,2] 0
x[3,2,1] 0
x[3,2,2] 0
x[3,4,1] 0
x[3,4,2] 0
x[3,5,1] 0
x[3,5,2] 0
x[3,6,1] 0
x[3,6,2] 0
x[3,7,1] 0
x[3,7,2] 0
x[3,8,1] 0
x[3,8,2] 0
x[3,9,1] 0
x[3,9,2] 0
x[3,10,1] 0
x[3,10,2] 0
x[4,0,1] 1
x[4,0,2] 0
x[4,1,1] 0
x[4,1,2] 0
x[4,2,1] 0
x[4,2,2] 0
x[4,3,1] 0
x[4,3,2] 0
x[4,5,1] 0
x[4,5,2] 0
x[4,6,1] 0
x[4,6,2] 0
x[4,7,1] 0
x[4,7,2] 0
x[4,8,1] 0
x[4,8,2] 0
x[4,9,1] 0
x[4,9,2] 0
x[4,10,1] 0
x[4,10,2] 0
x[5,0,1] 0
x[5,0,2] 0
x[5,1,1] 0
x[5,1,2] 0
x[5,2,1] 0
x[5,2,2] 0
x[5,3,1] 0
x[5,3,2] 0
x[5,4,1] 0
x[5,4,2] 0
x[5,6,1] 0
x[5,6,2] 0
x[5,7,1] 0
x[5,7,2] 1
x[5,8,1] 0
x[5,8,2] 0
x[5,9,1] 0
x[5,9,2] 0
x[5,10,1] 0
x[5,10,2] 0
x[6,0,1] 0
x[6,0,2] 0
x[6,1,1] 0
x[6,1,2] 0
x[6,2,1] 1
x[6,2,2] 0
x[6,3,1] 0
x[6,3,2] 0
x[6,4,1] 0
x[6,4,2] 0
x[6,5,1] 0
x[6,5,2] 0
x[6,7,1] 0
x[6,7,2] 0
x[6,8,1] 0
x[6,8,2] 0
x[6,9,1] 0
x[6,9,2] 0
x[6,10,1] 0
x[6,10,2] 0
x[7,0,1] 0
x[7,0,2] 0
x[7,1,1] 0
x[7,1,2] 0
x[7,2,1] 0
x[7,2,2] 0
x[7,3,1] 0
x[7,3,2] 1
x[7,4,1] 0
x[7,4,2] 0
x[7,5,1] 0
x[7,5,2] 0
x[7,6,1] 0
x[7,6,2] 0
x[7,8,1] 0
x[7,8,2] 0
x[7,9,1] 0
x[7,9,2] 0
x[7,10,1] 0
x[7,10,2] 0
x[8,0,1] 0
x[8,0,2] 0
x[8,1,1] 0
x[8,1,2] 0
x[8,2,1] 0
x[8,2,2] 0
x[8,3,1] 0
x[8,3,2] 0
x[8,4,1] 1
x[8,4,2] 0
x[8,5,1] 0
x[8,5,2] 0
x[8,6,1] 0
x[8,6,2] 0
x[8,7,1] 0
x[8,7,2] 0
x[8,9,1] 0
x[8,9,2] 0
x[8,10,1] 0
x[8,10,2] 0
x[9,0,1] 0
x[9,0,2] 0
x[9,1,1] 0
x[9,1,2] 0
x[9,2,1] 0
x[9,2,2] 0
x[9,3,1] 0
x[9,3,2] 0
x[9,4,1] 0
x[9,4,2] 0
x[9,5,1] 0
x[9,5,2] 1
x[9,6,1] 0
x[9,6,2] 0
x[9,7,1] 0
x[9,7,2] 0
x[9,8,1] 0
x[9,8,2] 0
x[9,10,1] 0
x[9,10,2] 0
x[10,0,1] 0
x[10,0,2] 0
x[10,1,1] 1
x[10,1,2] 0
x[10,2,1] 0
x[10,2,2] 0
x[10,3,1] 0
x[10,3,2] 0
x[10,4,1] 0
x[10,4,2] 0
x[10,5,1] 0
x[10,5,2] 0
x[10,6,1] 0
x[10,6,2] 0
x[10,7,1] 0
x[10,7,2] 0
x[10,8,1] 0
x[10,8,2] 0
x[10,9,1] 0
x[10,9,2] 0
y[1,1] 7
y[1,2] 0
y[2,1] 7
y[2,2] 0
y[3,1] 0
y[3,2] 9
y[4,1] 8
y[4,2] 0
y[5,1] 0
y[5,2] 8
y[6,1] 7
y[6,2] 0
y[7,1] 0
y[7,2] 9
y[8,1] 8
y[8,2] 0
y[9,1] 0
y[9,2] 7
y[10,1] 9
y[10,2] 0
u[1,1] 10
u[1,2] 35
u[2,1] 8
u[2,2] 35
u[3,1] 70
u[3,2] 35
u[4,1] 12
u[4,2] 35
u[5,1] 70
u[5,2] 14
u[6,1] 7
u[6,2] 35
u[7,1] 70
u[7,2] 15
u[8,1] 11
u[8,2] 35
u[9,1] 70
u[9,2] 13
u[10,1] 9
u[10,2] 35
z[1,1] 1
z[1,2] 0
z[2,1] 1
z[2,2] 0
z[3,1] 0
z[3,2] 1
z[4,1] 1
z[4,2] 0
z[5,1] 0
z[5,2] 1
z[6,1] 1
z[6,2] 0
z[7,1] 0
z[7,2] 1
z[8,1] 1
z[8,2] 0
z[9,1] 0
z[9,2] 1
z[10,1] 1
z[10,2] 0
